Route #1: 78 74 50 38 19 17 76 83
Route #2: 72 103 10 88 37 24 62 32
Route #3: 112 48 64 117 49 71 61 1 69
Route #4: 109 87 26 35 54 110 123 56 132
Route #5: 39 73 18 59 25 113 89 101 11
Route #6: 106 46 99 104 111 36 43 120 79
Route #7: 128 115 82 133 124 33 86 3 130
Route #8: 40 52 131 114 127 125 122 100
Route #9: 129 116 105 41 34 58 60 95
Route #10: 31 92 29 119 57 85 12 80
Route #11: 21 45 102 94 93 42 65 28 75 20 126 55 67 22 27 4 70 44 98 23 53 66
Route #12: 91 14 2 9 47 16 51 118
Route #13: 90 108 6 97 5 77 121 7 68 30 8 107 84 81 15 63 13 96
Cost 10933.000000